
(set-logic ALL) 

(declare-datatype MyList ((Nil) (Cons (head Real) (tail MyList)) )) 
(declare-fun l0 () MyList) 
(declare-fun l1 () MyList) 
(declare-fun l2 () MyList) 
(declare-fun l3 () MyList) 
(declare-fun i0 () Real) 
(declare-fun i1 () Real) 
(assert (= l1 Nil) )
(assert (or (= l0 Nil) (= l1 l2) (= l3 Nil)) )
(assert (and (is-Cons Nil) (= l3 l0) (is-Nil l0)) )
(assert (and (= l2 Nil) (= l1 l1) (= l2 l0) (= l2 Nil)) )
(assert (is-Nil l3) )
(assert (is-Nil Nil) )
(assert (or (= l3 l2) (is-Cons l2) (is-Cons l3)) )
(assert (is-Nil Nil) )
(check-sat)
